column=9;
row=9;
left=[0, 0, 5, 0, 0, 0, 0, 2, 0];
right=[0, 0, 0, 0, 5, 2, 3, 5, 0];
top=[0, 0, 0, 0, 4, 3, 0, 3, 0];
bottom=[3, 2, 0, 0, 0, 3, 0, 0, 0];
Board=[|8,0,0,0,1,0,0,0,0|5,2,1,0,4,0,3,0,7|0,3,0,0,0,0,0,1,9|0,0,0,8,5,0,0,0,0|9,0,0,3,0,0,0,0,0|0,1,0,2,0,0,4,0,0|1,6,0,4,3,0,9,7,0|7,0,4,0,0,0,0,5,0|2,0,0,6,9,0,0,0,0|]